
Gurobi 11.0.3 (linux64) logging started Mon 18 Nov 2024 10:30:41 PM CST

Set parameter LogFile to value "/home/dlcole3/graph_abstraction/hierarchical_graphs/git_storage/CS1/HP_low_reserves/gurobi_logs/serial/logfile_ST17_8.log"

Gurobi 11.0.3 (linux64) logging started Mon 18 Nov 2024 10:34:53 PM CST

Set parameter LogFile to value "/home/dlcole3/graph_abstraction/hierarchical_graphs/git_storage/CS1/HP_low_reserves/gurobi_logs/serial/logfile_ST17_8.log"
Gurobi Optimizer version 11.0.3 build v11.0.3rc0 (linux64 - "Ubuntu 18.04.3 LTS")

CPU model: Intel(R) Xeon(R) CPU E5-2698 v4 @ 2.20GHz, instruction set [SSE2|AVX|AVX2]
Thread count: 40 physical cores, 80 logical processors, using up to 20 threads

Optimize a model with 29168 rows, 50688 columns and 136175 nonzeros
Model fingerprint: 0xc2a5a36c
Variable types: 46944 continuous, 3744 integer (3744 binary)
Coefficient statistics:
  Matrix range     [6e-01, 2e+04]
  Objective range  [2e+00, 2e+04]
  Bounds range     [5e-02, 2e+05]
  RHS range        [1e-16, 7e+03]
Presolve removed 13940 rows and 38642 columns
Presolve time: 0.34s
Presolved: 15228 rows, 12046 columns, 64426 nonzeros
Variable types: 9046 continuous, 3000 integer (3000 binary)
Found heuristic solution: objective 177822.23057
Found heuristic solution: objective 176651.94247
Found heuristic solution: objective 147078.60840

Root relaxation: objective 4.957291e+04, 7451 iterations, 0.29 seconds (0.21 work units)

    Nodes    |    Current Node    |     Objective Bounds      |     Work
 Expl Unexpl |  Obj  Depth IntInf | Incumbent    BestBd   Gap | It/Node Time

     0     0 49572.9125    0   14 147078.608 49572.9125  66.3%     -    1s
H    0     0                    52465.467910 49572.9125  5.51%     -    1s
H    0     0                    52465.467896 49572.9125  5.51%     -    1s
     0     0 49572.9125    0   14 52465.4679 49572.9125  5.51%     -    1s
     0     0 49572.9125    0    4 52465.4679 49572.9125  5.51%     -    2s
     0     0 49624.4629    0    4 52465.4679 49624.4629  5.41%     -    2s
     0     2 49624.4629    0    4 52465.4679 49624.4629  5.41%     -    2s
H   40    48                    49951.962399 49709.0470  0.49%  11.8    3s
H   94     6                    49951.962301 49849.4068  0.21%   6.3    3s

Explored 105 nodes (15018 simplex iterations) in 3.28 seconds (1.92 work units)
Thread count was 20 (of 80 available processors)

Solution count 8: 49952 49952 52465.5 ... 479553

Optimal solution found (tolerance 3.00e-03)
Best objective 4.995196230977e+04, best bound 4.984940684977e+04, gap 0.2053%

User-callback calls 1779, time in user-callback 0.00 sec
